Total weight: 1555.9674288950325
Route 1: 0 95 59 92 52 31 69 12 76 30 18 53 40 79 29 26 96 43 74 24 68 97 98 58 13 0 
Route 2: 0 42 14 44 83 82 7 88 57 87 8 49 46 37 100 91 93 17 60 77 80 0 
Route 3: 0 21 73 72 39 67 23 75 22 41 56 4 54 55 25 0 
Route 4: 0 5 45 36 47 62 63 64 11 19 61 16 85 99 94 6 50 3 34 35 32 48 89 0 
Route 5: 0 2 15 38 86 84 90 10 0 
Route 6: 0 27 28 33 65 71 9 78 81 51 66 20 70 1 0 
